0000000000000000
0001000000000000
0001111111010000
0011111111100000
0000000001111000
0000000000111000
0000000000100000
0000000000100000
0000000001100000
0000000001100000
0000000001100000
0000000001110000
0001111111111000
0001111111111000
0000000000000000
0000000000000000
